T = 150;
V = 20;
Q = 15;
L = 5;
C = 5;
P = 20;
time = [|  0, 29,  0, 30, 26,  0, 26, 29, 20, 29, 30, 20, 29, 20,  0, 29,  0, 30, 29, 26, 20, 20, 26, 26,  0, 20, 29, 20,  0, 26, 26,  0, 26, 26, 30,  0, 20, 20, 20, 20, 18, 18, 18, 18, 18, 18, 18, 18, 18, 18, 18, 18, 18, 18, 18, 18, 18, 18, 18, 18, 18, 18, 18, 18, 18, 18, 18, 18, 18, 18, 18, 18, 18, 18, 18, 18, 18, 18, 18, 18,
        | 29,  0, 29, 25, 13, 29, 13,  0, 11,  0, 25, 11,  0, 11, 29,  0, 29, 25,  0, 13, 11, 11, 13, 13, 29, 11,  0, 11, 29, 13, 13, 29, 13, 13, 25, 29, 11, 11, 11, 11, 14, 14, 14, 14, 14, 14, 14, 14, 14, 14, 14, 14, 14, 14, 14, 14, 14, 14, 14, 14, 14, 14, 14, 14, 14, 14, 14, 14, 14, 14, 14, 14, 14, 14, 14, 14, 14, 14, 14, 14,
        |  0, 29,  0, 30, 26,  0, 26, 29, 20, 29, 30, 20, 29, 20,  0, 29,  0, 30, 29, 26, 20, 20, 26, 26,  0, 20, 29, 20,  0, 26, 26,  0, 26, 26, 30,  0, 20, 20, 20, 20, 18, 18, 18, 18, 18, 18, 18, 18, 18, 18, 18, 18, 18, 18, 18, 18, 18, 18, 18, 18, 18, 18, 18, 18, 18, 18, 18, 18, 18, 18, 18, 18, 18, 18, 18, 18, 18, 18, 18, 18,
        | 30, 25, 30,  0, 34, 30, 34, 25, 29, 25,  0, 29, 25, 29, 30, 25, 30,  0, 25, 34, 29, 29, 34, 34, 30, 29, 25, 29, 30, 34, 34, 30, 34, 34,  0, 30, 29, 29, 29, 29, 17, 17, 17, 17, 17, 17, 17, 17, 17, 17, 17, 17, 17, 17, 17, 17, 17, 17, 17, 17, 17, 17, 17, 17, 17, 17, 17, 17, 17, 17, 17, 17, 17, 17, 17, 17, 17, 17, 17, 17,
        | 26, 13, 26, 34,  0, 26,  0, 13,  7, 13, 34,  7, 13,  7, 26, 13, 26, 34, 13,  0,  7,  7,  0,  0, 26,  7, 13,  7, 26,  0,  0, 26,  0,  0, 34, 26,  7,  7,  7,  7, 19, 19, 19, 19, 19, 19, 19, 19, 19, 19, 19, 19, 19, 19, 19, 19, 19, 19, 19, 19, 19, 19, 19, 19, 19, 19, 19, 19, 19, 19, 19, 19, 19, 19, 19, 19, 19, 19, 19, 19,
        |  0, 29,  0, 30, 26,  0, 26, 29, 20, 29, 30, 20, 29, 20,  0, 29,  0, 30, 29, 26, 20, 20, 26, 26,  0, 20, 29, 20,  0, 26, 26,  0, 26, 26, 30,  0, 20, 20, 20, 20, 18, 18, 18, 18, 18, 18, 18, 18, 18, 18, 18, 18, 18, 18, 18, 18, 18, 18, 18, 18, 18, 18, 18, 18, 18, 18, 18, 18, 18, 18, 18, 18, 18, 18, 18, 18, 18, 18, 18, 18,
        | 26, 13, 26, 34,  0, 26,  0, 13,  7, 13, 34,  7, 13,  7, 26, 13, 26, 34, 13,  0,  7,  7,  0,  0, 26,  7, 13,  7, 26,  0,  0, 26,  0,  0, 34, 26,  7,  7,  7,  7, 19, 19, 19, 19, 19, 19, 19, 19, 19, 19, 19, 19, 19, 19, 19, 19, 19, 19, 19, 19, 19, 19, 19, 19, 19, 19, 19, 19, 19, 19, 19, 19, 19, 19, 19, 19, 19, 19, 19, 19,
        | 29,  0, 29, 25, 13, 29, 13,  0, 11,  0, 25, 11,  0, 11, 29,  0, 29, 25,  0, 13, 11, 11, 13, 13, 29, 11,  0, 11, 29, 13, 13, 29, 13, 13, 25, 29, 11, 11, 11, 11, 14, 14, 14, 14, 14, 14, 14, 14, 14, 14, 14, 14, 14, 14, 14, 14, 14, 14, 14, 14, 14, 14, 14, 14, 14, 14, 14, 14, 14, 14, 14, 14, 14, 14, 14, 14, 14, 14, 14, 14,
        | 20, 11, 20, 29,  7, 20,  7, 11,  0, 11, 29,  0, 11,  0, 20, 11, 20, 29, 11,  7,  0,  0,  7,  7, 20,  0, 11,  0, 20,  7,  7, 20,  7,  7, 29, 20,  0,  0,  0,  0, 13, 13, 13, 13, 13, 13, 13, 13, 13, 13, 13, 13, 13, 13, 13, 13, 13, 13, 13, 13, 13, 13, 13, 13, 13, 13, 13, 13, 13, 13, 13, 13, 13, 13, 13, 13, 13, 13, 13, 13,
        | 29,  0, 29, 25, 13, 29, 13,  0, 11,  0, 25, 11,  0, 11, 29,  0, 29, 25,  0, 13, 11, 11, 13, 13, 29, 11,  0, 11, 29, 13, 13, 29, 13, 13, 25, 29, 11, 11, 11, 11, 14, 14, 14, 14, 14, 14, 14, 14, 14, 14, 14, 14, 14, 14, 14, 14, 14, 14, 14, 14, 14, 14, 14, 14, 14, 14, 14, 14, 14, 14, 14, 14, 14, 14, 14, 14, 14, 14, 14, 14,
        | 30, 25, 30,  0, 34, 30, 34, 25, 29, 25,  0, 29, 25, 29, 30, 25, 30,  0, 25, 34, 29, 29, 34, 34, 30, 29, 25, 29, 30, 34, 34, 30, 34, 34,  0, 30, 29, 29, 29, 29, 17, 17, 17, 17, 17, 17, 17, 17, 17, 17, 17, 17, 17, 17, 17, 17, 17, 17, 17, 17, 17, 17, 17, 17, 17, 17, 17, 17, 17, 17, 17, 17, 17, 17, 17, 17, 17, 17, 17, 17,
        | 20, 11, 20, 29,  7, 20,  7, 11,  0, 11, 29,  0, 11,  0, 20, 11, 20, 29, 11,  7,  0,  0,  7,  7, 20,  0, 11,  0, 20,  7,  7, 20,  7,  7, 29, 20,  0,  0,  0,  0, 13, 13, 13, 13, 13, 13, 13, 13, 13, 13, 13, 13, 13, 13, 13, 13, 13, 13, 13, 13, 13, 13, 13, 13, 13, 13, 13, 13, 13, 13, 13, 13, 13, 13, 13, 13, 13, 13, 13, 13,
        | 29,  0, 29, 25, 13, 29, 13,  0, 11,  0, 25, 11,  0, 11, 29,  0, 29, 25,  0, 13, 11, 11, 13, 13, 29, 11,  0, 11, 29, 13, 13, 29, 13, 13, 25, 29, 11, 11, 11, 11, 14, 14, 14, 14, 14, 14, 14, 14, 14, 14, 14, 14, 14, 14, 14, 14, 14, 14, 14, 14, 14, 14, 14, 14, 14, 14, 14, 14, 14, 14, 14, 14, 14, 14, 14, 14, 14, 14, 14, 14,
        | 20, 11, 20, 29,  7, 20,  7, 11,  0, 11, 29,  0, 11,  0, 20, 11, 20, 29, 11,  7,  0,  0,  7,  7, 20,  0, 11,  0, 20,  7,  7, 20,  7,  7, 29, 20,  0,  0,  0,  0, 13, 13, 13, 13, 13, 13, 13, 13, 13, 13, 13, 13, 13, 13, 13, 13, 13, 13, 13, 13, 13, 13, 13, 13, 13, 13, 13, 13, 13, 13, 13, 13, 13, 13, 13, 13, 13, 13, 13, 13,
        |  0, 29,  0, 30, 26,  0, 26, 29, 20, 29, 30, 20, 29, 20,  0, 29,  0, 30, 29, 26, 20, 20, 26, 26,  0, 20, 29, 20,  0, 26, 26,  0, 26, 26, 30,  0, 20, 20, 20, 20, 18, 18, 18, 18, 18, 18, 18, 18, 18, 18, 18, 18, 18, 18, 18, 18, 18, 18, 18, 18, 18, 18, 18, 18, 18, 18, 18, 18, 18, 18, 18, 18, 18, 18, 18, 18, 18, 18, 18, 18,
        | 29,  0, 29, 25, 13, 29, 13,  0, 11,  0, 25, 11,  0, 11, 29,  0, 29, 25,  0, 13, 11, 11, 13, 13, 29, 11,  0, 11, 29, 13, 13, 29, 13, 13, 25, 29, 11, 11, 11, 11, 14, 14, 14, 14, 14, 14, 14, 14, 14, 14, 14, 14, 14, 14, 14, 14, 14, 14, 14, 14, 14, 14, 14, 14, 14, 14, 14, 14, 14, 14, 14, 14, 14, 14, 14, 14, 14, 14, 14, 14,
        |  0, 29,  0, 30, 26,  0, 26, 29, 20, 29, 30, 20, 29, 20,  0, 29,  0, 30, 29, 26, 20, 20, 26, 26,  0, 20, 29, 20,  0, 26, 26,  0, 26, 26, 30,  0, 20, 20, 20, 20, 18, 18, 18, 18, 18, 18, 18, 18, 18, 18, 18, 18, 18, 18, 18, 18, 18, 18, 18, 18, 18, 18, 18, 18, 18, 18, 18, 18, 18, 18, 18, 18, 18, 18, 18, 18, 18, 18, 18, 18,
        | 30, 25, 30,  0, 34, 30, 34, 25, 29, 25,  0, 29, 25, 29, 30, 25, 30,  0, 25, 34, 29, 29, 34, 34, 30, 29, 25, 29, 30, 34, 34, 30, 34, 34,  0, 30, 29, 29, 29, 29, 17, 17, 17, 17, 17, 17, 17, 17, 17, 17, 17, 17, 17, 17, 17, 17, 17, 17, 17, 17, 17, 17, 17, 17, 17, 17, 17, 17, 17, 17, 17, 17, 17, 17, 17, 17, 17, 17, 17, 17,
        | 29,  0, 29, 25, 13, 29, 13,  0, 11,  0, 25, 11,  0, 11, 29,  0, 29, 25,  0, 13, 11, 11, 13, 13, 29, 11,  0, 11, 29, 13, 13, 29, 13, 13, 25, 29, 11, 11, 11, 11, 14, 14, 14, 14, 14, 14, 14, 14, 14, 14, 14, 14, 14, 14, 14, 14, 14, 14, 14, 14, 14, 14, 14, 14, 14, 14, 14, 14, 14, 14, 14, 14, 14, 14, 14, 14, 14, 14, 14, 14,
        | 26, 13, 26, 34,  0, 26,  0, 13,  7, 13, 34,  7, 13,  7, 26, 13, 26, 34, 13,  0,  7,  7,  0,  0, 26,  7, 13,  7, 26,  0,  0, 26,  0,  0, 34, 26,  7,  7,  7,  7, 19, 19, 19, 19, 19, 19, 19, 19, 19, 19, 19, 19, 19, 19, 19, 19, 19, 19, 19, 19, 19, 19, 19, 19, 19, 19, 19, 19, 19, 19, 19, 19, 19, 19, 19, 19, 19, 19, 19, 19,
        | 20, 11, 20, 29,  7, 20,  7, 11,  0, 11, 29,  0, 11,  0, 20, 11, 20, 29, 11,  7,  0,  0,  7,  7, 20,  0, 11,  0, 20,  7,  7, 20,  7,  7, 29, 20,  0,  0,  0,  0, 13, 13, 13, 13, 13, 13, 13, 13, 13, 13, 13, 13, 13, 13, 13, 13, 13, 13, 13, 13, 13, 13, 13, 13, 13, 13, 13, 13, 13, 13, 13, 13, 13, 13, 13, 13, 13, 13, 13, 13,
        | 20, 11, 20, 29,  7, 20,  7, 11,  0, 11, 29,  0, 11,  0, 20, 11, 20, 29, 11,  7,  0,  0,  7,  7, 20,  0, 11,  0, 20,  7,  7, 20,  7,  7, 29, 20,  0,  0,  0,  0, 13, 13, 13, 13, 13, 13, 13, 13, 13, 13, 13, 13, 13, 13, 13, 13, 13, 13, 13, 13, 13, 13, 13, 13, 13, 13, 13, 13, 13, 13, 13, 13, 13, 13, 13, 13, 13, 13, 13, 13,
        | 26, 13, 26, 34,  0, 26,  0, 13,  7, 13, 34,  7, 13,  7, 26, 13, 26, 34, 13,  0,  7,  7,  0,  0, 26,  7, 13,  7, 26,  0,  0, 26,  0,  0, 34, 26,  7,  7,  7,  7, 19, 19, 19, 19, 19, 19, 19, 19, 19, 19, 19, 19, 19, 19, 19, 19, 19, 19, 19, 19, 19, 19, 19, 19, 19, 19, 19, 19, 19, 19, 19, 19, 19, 19, 19, 19, 19, 19, 19, 19,
        | 26, 13, 26, 34,  0, 26,  0, 13,  7, 13, 34,  7, 13,  7, 26, 13, 26, 34, 13,  0,  7,  7,  0,  0, 26,  7, 13,  7, 26,  0,  0, 26,  0,  0, 34, 26,  7,  7,  7,  7, 19, 19, 19, 19, 19, 19, 19, 19, 19, 19, 19, 19, 19, 19, 19, 19, 19, 19, 19, 19, 19, 19, 19, 19, 19, 19, 19, 19, 19, 19, 19, 19, 19, 19, 19, 19, 19, 19, 19, 19,
        |  0, 29,  0, 30, 26,  0, 26, 29, 20, 29, 30, 20, 29, 20,  0, 29,  0, 30, 29, 26, 20, 20, 26, 26,  0, 20, 29, 20,  0, 26, 26,  0, 26, 26, 30,  0, 20, 20, 20, 20, 18, 18, 18, 18, 18, 18, 18, 18, 18, 18, 18, 18, 18, 18, 18, 18, 18, 18, 18, 18, 18, 18, 18, 18, 18, 18, 18, 18, 18, 18, 18, 18, 18, 18, 18, 18, 18, 18, 18, 18,
        | 20, 11, 20, 29,  7, 20,  7, 11,  0, 11, 29,  0, 11,  0, 20, 11, 20, 29, 11,  7,  0,  0,  7,  7, 20,  0, 11,  0, 20,  7,  7, 20,  7,  7, 29, 20,  0,  0,  0,  0, 13, 13, 13, 13, 13, 13, 13, 13, 13, 13, 13, 13, 13, 13, 13, 13, 13, 13, 13, 13, 13, 13, 13, 13, 13, 13, 13, 13, 13, 13, 13, 13, 13, 13, 13, 13, 13, 13, 13, 13,
        | 29,  0, 29, 25, 13, 29, 13,  0, 11,  0, 25, 11,  0, 11, 29,  0, 29, 25,  0, 13, 11, 11, 13, 13, 29, 11,  0, 11, 29, 13, 13, 29, 13, 13, 25, 29, 11, 11, 11, 11, 14, 14, 14, 14, 14, 14, 14, 14, 14, 14, 14, 14, 14, 14, 14, 14, 14, 14, 14, 14, 14, 14, 14, 14, 14, 14, 14, 14, 14, 14, 14, 14, 14, 14, 14, 14, 14, 14, 14, 14,
        | 20, 11, 20, 29,  7, 20,  7, 11,  0, 11, 29,  0, 11,  0, 20, 11, 20, 29, 11,  7,  0,  0,  7,  7, 20,  0, 11,  0, 20,  7,  7, 20,  7,  7, 29, 20,  0,  0,  0,  0, 13, 13, 13, 13, 13, 13, 13, 13, 13, 13, 13, 13, 13, 13, 13, 13, 13, 13, 13, 13, 13, 13, 13, 13, 13, 13, 13, 13, 13, 13, 13, 13, 13, 13, 13, 13, 13, 13, 13, 13,
        |  0, 29,  0, 30, 26,  0, 26, 29, 20, 29, 30, 20, 29, 20,  0, 29,  0, 30, 29, 26, 20, 20, 26, 26,  0, 20, 29, 20,  0, 26, 26,  0, 26, 26, 30,  0, 20, 20, 20, 20, 18, 18, 18, 18, 18, 18, 18, 18, 18, 18, 18, 18, 18, 18, 18, 18, 18, 18, 18, 18, 18, 18, 18, 18, 18, 18, 18, 18, 18, 18, 18, 18, 18, 18, 18, 18, 18, 18, 18, 18,
        | 26, 13, 26, 34,  0, 26,  0, 13,  7, 13, 34,  7, 13,  7, 26, 13, 26, 34, 13,  0,  7,  7,  0,  0, 26,  7, 13,  7, 26,  0,  0, 26,  0,  0, 34, 26,  7,  7,  7,  7, 19, 19, 19, 19, 19, 19, 19, 19, 19, 19, 19, 19, 19, 19, 19, 19, 19, 19, 19, 19, 19, 19, 19, 19, 19, 19, 19, 19, 19, 19, 19, 19, 19, 19, 19, 19, 19, 19, 19, 19,
        | 26, 13, 26, 34,  0, 26,  0, 13,  7, 13, 34,  7, 13,  7, 26, 13, 26, 34, 13,  0,  7,  7,  0,  0, 26,  7, 13,  7, 26,  0,  0, 26,  0,  0, 34, 26,  7,  7,  7,  7, 19, 19, 19, 19, 19, 19, 19, 19, 19, 19, 19, 19, 19, 19, 19, 19, 19, 19, 19, 19, 19, 19, 19, 19, 19, 19, 19, 19, 19, 19, 19, 19, 19, 19, 19, 19, 19, 19, 19, 19,
        |  0, 29,  0, 30, 26,  0, 26, 29, 20, 29, 30, 20, 29, 20,  0, 29,  0, 30, 29, 26, 20, 20, 26, 26,  0, 20, 29, 20,  0, 26, 26,  0, 26, 26, 30,  0, 20, 20, 20, 20, 18, 18, 18, 18, 18, 18, 18, 18, 18, 18, 18, 18, 18, 18, 18, 18, 18, 18, 18, 18, 18, 18, 18, 18, 18, 18, 18, 18, 18, 18, 18, 18, 18, 18, 18, 18, 18, 18, 18, 18,
        | 26, 13, 26, 34,  0, 26,  0, 13,  7, 13, 34,  7, 13,  7, 26, 13, 26, 34, 13,  0,  7,  7,  0,  0, 26,  7, 13,  7, 26,  0,  0, 26,  0,  0, 34, 26,  7,  7,  7,  7, 19, 19, 19, 19, 19, 19, 19, 19, 19, 19, 19, 19, 19, 19, 19, 19, 19, 19, 19, 19, 19, 19, 19, 19, 19, 19, 19, 19, 19, 19, 19, 19, 19, 19, 19, 19, 19, 19, 19, 19,
        | 26, 13, 26, 34,  0, 26,  0, 13,  7, 13, 34,  7, 13,  7, 26, 13, 26, 34, 13,  0,  7,  7,  0,  0, 26,  7, 13,  7, 26,  0,  0, 26,  0,  0, 34, 26,  7,  7,  7,  7, 19, 19, 19, 19, 19, 19, 19, 19, 19, 19, 19, 19, 19, 19, 19, 19, 19, 19, 19, 19, 19, 19, 19, 19, 19, 19, 19, 19, 19, 19, 19, 19, 19, 19, 19, 19, 19, 19, 19, 19,
        | 30, 25, 30,  0, 34, 30, 34, 25, 29, 25,  0, 29, 25, 29, 30, 25, 30,  0, 25, 34, 29, 29, 34, 34, 30, 29, 25, 29, 30, 34, 34, 30, 34, 34,  0, 30, 29, 29, 29, 29, 17, 17, 17, 17, 17, 17, 17, 17, 17, 17, 17, 17, 17, 17, 17, 17, 17, 17, 17, 17, 17, 17, 17, 17, 17, 17, 17, 17, 17, 17, 17, 17, 17, 17, 17, 17, 17, 17, 17, 17,
        |  0, 29,  0, 30, 26,  0, 26, 29, 20, 29, 30, 20, 29, 20,  0, 29,  0, 30, 29, 26, 20, 20, 26, 26,  0, 20, 29, 20,  0, 26, 26,  0, 26, 26, 30,  0, 20, 20, 20, 20, 18, 18, 18, 18, 18, 18, 18, 18, 18, 18, 18, 18, 18, 18, 18, 18, 18, 18, 18, 18, 18, 18, 18, 18, 18, 18, 18, 18, 18, 18, 18, 18, 18, 18, 18, 18, 18, 18, 18, 18,
        | 20, 11, 20, 29,  7, 20,  7, 11,  0, 11, 29,  0, 11,  0, 20, 11, 20, 29, 11,  7,  0,  0,  7,  7, 20,  0, 11,  0, 20,  7,  7, 20,  7,  7, 29, 20,  0,  0,  0,  0, 13, 13, 13, 13, 13, 13, 13, 13, 13, 13, 13, 13, 13, 13, 13, 13, 13, 13, 13, 13, 13, 13, 13, 13, 13, 13, 13, 13, 13, 13, 13, 13, 13, 13, 13, 13, 13, 13, 13, 13,
        | 20, 11, 20, 29,  7, 20,  7, 11,  0, 11, 29,  0, 11,  0, 20, 11, 20, 29, 11,  7,  0,  0,  7,  7, 20,  0, 11,  0, 20,  7,  7, 20,  7,  7, 29, 20,  0,  0,  0,  0, 13, 13, 13, 13, 13, 13, 13, 13, 13, 13, 13, 13, 13, 13, 13, 13, 13, 13, 13, 13, 13, 13, 13, 13, 13, 13, 13, 13, 13, 13, 13, 13, 13, 13, 13, 13, 13, 13, 13, 13,
        | 20, 11, 20, 29,  7, 20,  7, 11,  0, 11, 29,  0, 11,  0, 20, 11, 20, 29, 11,  7,  0,  0,  7,  7, 20,  0, 11,  0, 20,  7,  7, 20,  7,  7, 29, 20,  0,  0,  0,  0, 13, 13, 13, 13, 13, 13, 13, 13, 13, 13, 13, 13, 13, 13, 13, 13, 13, 13, 13, 13, 13, 13, 13, 13, 13, 13, 13, 13, 13, 13, 13, 13, 13, 13, 13, 13, 13, 13, 13, 13,
        | 20, 11, 20, 29,  7, 20,  7, 11,  0, 11, 29,  0, 11,  0, 20, 11, 20, 29, 11,  7,  0,  0,  7,  7, 20,  0, 11,  0, 20,  7,  7, 20,  7,  7, 29, 20,  0,  0,  0,  0, 13, 13, 13, 13, 13, 13, 13, 13, 13, 13, 13, 13, 13, 13, 13, 13, 13, 13, 13, 13, 13, 13, 13, 13, 13, 13, 13, 13, 13, 13, 13, 13, 13, 13, 13, 13, 13, 13, 13, 13,
        | 18, 14, 18, 17, 19, 18, 19, 14, 13, 14, 17, 13, 14, 13, 18, 14, 18, 17, 14, 19, 13, 13, 19, 19, 18, 13, 14, 13, 18, 19, 19, 18, 19, 19, 17, 18, 13, 13, 13, 13,  0,  0,  0,  0,  0,  0,  0,  0,  0,  0,  0,  0,  0,  0,  0,  0,  0,  0,  0,  0,  0,  0,  0,  0,  0,  0,  0,  0,  0,  0,  0,  0,  0,  0,  0,  0,  0,  0,  0,  0,
        | 18, 14, 18, 17, 19, 18, 19, 14, 13, 14, 17, 13, 14, 13, 18, 14, 18, 17, 14, 19, 13, 13, 19, 19, 18, 13, 14, 13, 18, 19, 19, 18, 19, 19, 17, 18, 13, 13, 13, 13,  0,  0,  0,  0,  0,  0,  0,  0,  0,  0,  0,  0,  0,  0,  0,  0,  0,  0,  0,  0,  0,  0,  0,  0,  0,  0,  0,  0,  0,  0,  0,  0,  0,  0,  0,  0,  0,  0,  0,  0,
        | 18, 14, 18, 17, 19, 18, 19, 14, 13, 14, 17, 13, 14, 13, 18, 14, 18, 17, 14, 19, 13, 13, 19, 19, 18, 13, 14, 13, 18, 19, 19, 18, 19, 19, 17, 18, 13, 13, 13, 13,  0,  0,  0,  0,  0,  0,  0,  0,  0,  0,  0,  0,  0,  0,  0,  0,  0,  0,  0,  0,  0,  0,  0,  0,  0,  0,  0,  0,  0,  0,  0,  0,  0,  0,  0,  0,  0,  0,  0,  0,
        | 18, 14, 18, 17, 19, 18, 19, 14, 13, 14, 17, 13, 14, 13, 18, 14, 18, 17, 14, 19, 13, 13, 19, 19, 18, 13, 14, 13, 18, 19, 19, 18, 19, 19, 17, 18, 13, 13, 13, 13,  0,  0,  0,  0,  0,  0,  0,  0,  0,  0,  0,  0,  0,  0,  0,  0,  0,  0,  0,  0,  0,  0,  0,  0,  0,  0,  0,  0,  0,  0,  0,  0,  0,  0,  0,  0,  0,  0,  0,  0,
        | 18, 14, 18, 17, 19, 18, 19, 14, 13, 14, 17, 13, 14, 13, 18, 14, 18, 17, 14, 19, 13, 13, 19, 19, 18, 13, 14, 13, 18, 19, 19, 18, 19, 19, 17, 18, 13, 13, 13, 13,  0,  0,  0,  0,  0,  0,  0,  0,  0,  0,  0,  0,  0,  0,  0,  0,  0,  0,  0,  0,  0,  0,  0,  0,  0,  0,  0,  0,  0,  0,  0,  0,  0,  0,  0,  0,  0,  0,  0,  0,
        | 18, 14, 18, 17, 19, 18, 19, 14, 13, 14, 17, 13, 14, 13, 18, 14, 18, 17, 14, 19, 13, 13, 19, 19, 18, 13, 14, 13, 18, 19, 19, 18, 19, 19, 17, 18, 13, 13, 13, 13,  0,  0,  0,  0,  0,  0,  0,  0,  0,  0,  0,  0,  0,  0,  0,  0,  0,  0,  0,  0,  0,  0,  0,  0,  0,  0,  0,  0,  0,  0,  0,  0,  0,  0,  0,  0,  0,  0,  0,  0,
        | 18, 14, 18, 17, 19, 18, 19, 14, 13, 14, 17, 13, 14, 13, 18, 14, 18, 17, 14, 19, 13, 13, 19, 19, 18, 13, 14, 13, 18, 19, 19, 18, 19, 19, 17, 18, 13, 13, 13, 13,  0,  0,  0,  0,  0,  0,  0,  0,  0,  0,  0,  0,  0,  0,  0,  0,  0,  0,  0,  0,  0,  0,  0,  0,  0,  0,  0,  0,  0,  0,  0,  0,  0,  0,  0,  0,  0,  0,  0,  0,
        | 18, 14, 18, 17, 19, 18, 19, 14, 13, 14, 17, 13, 14, 13, 18, 14, 18, 17, 14, 19, 13, 13, 19, 19, 18, 13, 14, 13, 18, 19, 19, 18, 19, 19, 17, 18, 13, 13, 13, 13,  0,  0,  0,  0,  0,  0,  0,  0,  0,  0,  0,  0,  0,  0,  0,  0,  0,  0,  0,  0,  0,  0,  0,  0,  0,  0,  0,  0,  0,  0,  0,  0,  0,  0,  0,  0,  0,  0,  0,  0,
        | 18, 14, 18, 17, 19, 18, 19, 14, 13, 14, 17, 13, 14, 13, 18, 14, 18, 17, 14, 19, 13, 13, 19, 19, 18, 13, 14, 13, 18, 19, 19, 18, 19, 19, 17, 18, 13, 13, 13, 13,  0,  0,  0,  0,  0,  0,  0,  0,  0,  0,  0,  0,  0,  0,  0,  0,  0,  0,  0,  0,  0,  0,  0,  0,  0,  0,  0,  0,  0,  0,  0,  0,  0,  0,  0,  0,  0,  0,  0,  0,
        | 18, 14, 18, 17, 19, 18, 19, 14, 13, 14, 17, 13, 14, 13, 18, 14, 18, 17, 14, 19, 13, 13, 19, 19, 18, 13, 14, 13, 18, 19, 19, 18, 19, 19, 17, 18, 13, 13, 13, 13,  0,  0,  0,  0,  0,  0,  0,  0,  0,  0,  0,  0,  0,  0,  0,  0,  0,  0,  0,  0,  0,  0,  0,  0,  0,  0,  0,  0,  0,  0,  0,  0,  0,  0,  0,  0,  0,  0,  0,  0,
        | 18, 14, 18, 17, 19, 18, 19, 14, 13, 14, 17, 13, 14, 13, 18, 14, 18, 17, 14, 19, 13, 13, 19, 19, 18, 13, 14, 13, 18, 19, 19, 18, 19, 19, 17, 18, 13, 13, 13, 13,  0,  0,  0,  0,  0,  0,  0,  0,  0,  0,  0,  0,  0,  0,  0,  0,  0,  0,  0,  0,  0,  0,  0,  0,  0,  0,  0,  0,  0,  0,  0,  0,  0,  0,  0,  0,  0,  0,  0,  0,
        | 18, 14, 18, 17, 19, 18, 19, 14, 13, 14, 17, 13, 14, 13, 18, 14, 18, 17, 14, 19, 13, 13, 19, 19, 18, 13, 14, 13, 18, 19, 19, 18, 19, 19, 17, 18, 13, 13, 13, 13,  0,  0,  0,  0,  0,  0,  0,  0,  0,  0,  0,  0,  0,  0,  0,  0,  0,  0,  0,  0,  0,  0,  0,  0,  0,  0,  0,  0,  0,  0,  0,  0,  0,  0,  0,  0,  0,  0,  0,  0,
        | 18, 14, 18, 17, 19, 18, 19, 14, 13, 14, 17, 13, 14, 13, 18, 14, 18, 17, 14, 19, 13, 13, 19, 19, 18, 13, 14, 13, 18, 19, 19, 18, 19, 19, 17, 18, 13, 13, 13, 13,  0,  0,  0,  0,  0,  0,  0,  0,  0,  0,  0,  0,  0,  0,  0,  0,  0,  0,  0,  0,  0,  0,  0,  0,  0,  0,  0,  0,  0,  0,  0,  0,  0,  0,  0,  0,  0,  0,  0,  0,
        | 18, 14, 18, 17, 19, 18, 19, 14, 13, 14, 17, 13, 14, 13, 18, 14, 18, 17, 14, 19, 13, 13, 19, 19, 18, 13, 14, 13, 18, 19, 19, 18, 19, 19, 17, 18, 13, 13, 13, 13,  0,  0,  0,  0,  0,  0,  0,  0,  0,  0,  0,  0,  0,  0,  0,  0,  0,  0,  0,  0,  0,  0,  0,  0,  0,  0,  0,  0,  0,  0,  0,  0,  0,  0,  0,  0,  0,  0,  0,  0,
        | 18, 14, 18, 17, 19, 18, 19, 14, 13, 14, 17, 13, 14, 13, 18, 14, 18, 17, 14, 19, 13, 13, 19, 19, 18, 13, 14, 13, 18, 19, 19, 18, 19, 19, 17, 18, 13, 13, 13, 13,  0,  0,  0,  0,  0,  0,  0,  0,  0,  0,  0,  0,  0,  0,  0,  0,  0,  0,  0,  0,  0,  0,  0,  0,  0,  0,  0,  0,  0,  0,  0,  0,  0,  0,  0,  0,  0,  0,  0,  0,
        | 18, 14, 18, 17, 19, 18, 19, 14, 13, 14, 17, 13, 14, 13, 18, 14, 18, 17, 14, 19, 13, 13, 19, 19, 18, 13, 14, 13, 18, 19, 19, 18, 19, 19, 17, 18, 13, 13, 13, 13,  0,  0,  0,  0,  0,  0,  0,  0,  0,  0,  0,  0,  0,  0,  0,  0,  0,  0,  0,  0,  0,  0,  0,  0,  0,  0,  0,  0,  0,  0,  0,  0,  0,  0,  0,  0,  0,  0,  0,  0,
        | 18, 14, 18, 17, 19, 18, 19, 14, 13, 14, 17, 13, 14, 13, 18, 14, 18, 17, 14, 19, 13, 13, 19, 19, 18, 13, 14, 13, 18, 19, 19, 18, 19, 19, 17, 18, 13, 13, 13, 13,  0,  0,  0,  0,  0,  0,  0,  0,  0,  0,  0,  0,  0,  0,  0,  0,  0,  0,  0,  0,  0,  0,  0,  0,  0,  0,  0,  0,  0,  0,  0,  0,  0,  0,  0,  0,  0,  0,  0,  0,
        | 18, 14, 18, 17, 19, 18, 19, 14, 13, 14, 17, 13, 14, 13, 18, 14, 18, 17, 14, 19, 13, 13, 19, 19, 18, 13, 14, 13, 18, 19, 19, 18, 19, 19, 17, 18, 13, 13, 13, 13,  0,  0,  0,  0,  0,  0,  0,  0,  0,  0,  0,  0,  0,  0,  0,  0,  0,  0,  0,  0,  0,  0,  0,  0,  0,  0,  0,  0,  0,  0,  0,  0,  0,  0,  0,  0,  0,  0,  0,  0,
        | 18, 14, 18, 17, 19, 18, 19, 14, 13, 14, 17, 13, 14, 13, 18, 14, 18, 17, 14, 19, 13, 13, 19, 19, 18, 13, 14, 13, 18, 19, 19, 18, 19, 19, 17, 18, 13, 13, 13, 13,  0,  0,  0,  0,  0,  0,  0,  0,  0,  0,  0,  0,  0,  0,  0,  0,  0,  0,  0,  0,  0,  0,  0,  0,  0,  0,  0,  0,  0,  0,  0,  0,  0,  0,  0,  0,  0,  0,  0,  0,
        | 18, 14, 18, 17, 19, 18, 19, 14, 13, 14, 17, 13, 14, 13, 18, 14, 18, 17, 14, 19, 13, 13, 19, 19, 18, 13, 14, 13, 18, 19, 19, 18, 19, 19, 17, 18, 13, 13, 13, 13,  0,  0,  0,  0,  0,  0,  0,  0,  0,  0,  0,  0,  0,  0,  0,  0,  0,  0,  0,  0,  0,  0,  0,  0,  0,  0,  0,  0,  0,  0,  0,  0,  0,  0,  0,  0,  0,  0,  0,  0,
        | 18, 14, 18, 17, 19, 18, 19, 14, 13, 14, 17, 13, 14, 13, 18, 14, 18, 17, 14, 19, 13, 13, 19, 19, 18, 13, 14, 13, 18, 19, 19, 18, 19, 19, 17, 18, 13, 13, 13, 13,  0,  0,  0,  0,  0,  0,  0,  0,  0,  0,  0,  0,  0,  0,  0,  0,  0,  0,  0,  0,  0,  0,  0,  0,  0,  0,  0,  0,  0,  0,  0,  0,  0,  0,  0,  0,  0,  0,  0,  0,
        | 18, 14, 18, 17, 19, 18, 19, 14, 13, 14, 17, 13, 14, 13, 18, 14, 18, 17, 14, 19, 13, 13, 19, 19, 18, 13, 14, 13, 18, 19, 19, 18, 19, 19, 17, 18, 13, 13, 13, 13,  0,  0,  0,  0,  0,  0,  0,  0,  0,  0,  0,  0,  0,  0,  0,  0,  0,  0,  0,  0,  0,  0,  0,  0,  0,  0,  0,  0,  0,  0,  0,  0,  0,  0,  0,  0,  0,  0,  0,  0,
        | 18, 14, 18, 17, 19, 18, 19, 14, 13, 14, 17, 13, 14, 13, 18, 14, 18, 17, 14, 19, 13, 13, 19, 19, 18, 13, 14, 13, 18, 19, 19, 18, 19, 19, 17, 18, 13, 13, 13, 13,  0,  0,  0,  0,  0,  0,  0,  0,  0,  0,  0,  0,  0,  0,  0,  0,  0,  0,  0,  0,  0,  0,  0,  0,  0,  0,  0,  0,  0,  0,  0,  0,  0,  0,  0,  0,  0,  0,  0,  0,
        | 18, 14, 18, 17, 19, 18, 19, 14, 13, 14, 17, 13, 14, 13, 18, 14, 18, 17, 14, 19, 13, 13, 19, 19, 18, 13, 14, 13, 18, 19, 19, 18, 19, 19, 17, 18, 13, 13, 13, 13,  0,  0,  0,  0,  0,  0,  0,  0,  0,  0,  0,  0,  0,  0,  0,  0,  0,  0,  0,  0,  0,  0,  0,  0,  0,  0,  0,  0,  0,  0,  0,  0,  0,  0,  0,  0,  0,  0,  0,  0,
        | 18, 14, 18, 17, 19, 18, 19, 14, 13, 14, 17, 13, 14, 13, 18, 14, 18, 17, 14, 19, 13, 13, 19, 19, 18, 13, 14, 13, 18, 19, 19, 18, 19, 19, 17, 18, 13, 13, 13, 13,  0,  0,  0,  0,  0,  0,  0,  0,  0,  0,  0,  0,  0,  0,  0,  0,  0,  0,  0,  0,  0,  0,  0,  0,  0,  0,  0,  0,  0,  0,  0,  0,  0,  0,  0,  0,  0,  0,  0,  0,
        | 18, 14, 18, 17, 19, 18, 19, 14, 13, 14, 17, 13, 14, 13, 18, 14, 18, 17, 14, 19, 13, 13, 19, 19, 18, 13, 14, 13, 18, 19, 19, 18, 19, 19, 17, 18, 13, 13, 13, 13,  0,  0,  0,  0,  0,  0,  0,  0,  0,  0,  0,  0,  0,  0,  0,  0,  0,  0,  0,  0,  0,  0,  0,  0,  0,  0,  0,  0,  0,  0,  0,  0,  0,  0,  0,  0,  0,  0,  0,  0,
        | 18, 14, 18, 17, 19, 18, 19, 14, 13, 14, 17, 13, 14, 13, 18, 14, 18, 17, 14, 19, 13, 13, 19, 19, 18, 13, 14, 13, 18, 19, 19, 18, 19, 19, 17, 18, 13, 13, 13, 13,  0,  0,  0,  0,  0,  0,  0,  0,  0,  0,  0,  0,  0,  0,  0,  0,  0,  0,  0,  0,  0,  0,  0,  0,  0,  0,  0,  0,  0,  0,  0,  0,  0,  0,  0,  0,  0,  0,  0,  0,
        | 18, 14, 18, 17, 19, 18, 19, 14, 13, 14, 17, 13, 14, 13, 18, 14, 18, 17, 14, 19, 13, 13, 19, 19, 18, 13, 14, 13, 18, 19, 19, 18, 19, 19, 17, 18, 13, 13, 13, 13,  0,  0,  0,  0,  0,  0,  0,  0,  0,  0,  0,  0,  0,  0,  0,  0,  0,  0,  0,  0,  0,  0,  0,  0,  0,  0,  0,  0,  0,  0,  0,  0,  0,  0,  0,  0,  0,  0,  0,  0,
        | 18, 14, 18, 17, 19, 18, 19, 14, 13, 14, 17, 13, 14, 13, 18, 14, 18, 17, 14, 19, 13, 13, 19, 19, 18, 13, 14, 13, 18, 19, 19, 18, 19, 19, 17, 18, 13, 13, 13, 13,  0,  0,  0,  0,  0,  0,  0,  0,  0,  0,  0,  0,  0,  0,  0,  0,  0,  0,  0,  0,  0,  0,  0,  0,  0,  0,  0,  0,  0,  0,  0,  0,  0,  0,  0,  0,  0,  0,  0,  0,
        | 18, 14, 18, 17, 19, 18, 19, 14, 13, 14, 17, 13, 14, 13, 18, 14, 18, 17, 14, 19, 13, 13, 19, 19, 18, 13, 14, 13, 18, 19, 19, 18, 19, 19, 17, 18, 13, 13, 13, 13,  0,  0,  0,  0,  0,  0,  0,  0,  0,  0,  0,  0,  0,  0,  0,  0,  0,  0,  0,  0,  0,  0,  0,  0,  0,  0,  0,  0,  0,  0,  0,  0,  0,  0,  0,  0,  0,  0,  0,  0,
        | 18, 14, 18, 17, 19, 18, 19, 14, 13, 14, 17, 13, 14, 13, 18, 14, 18, 17, 14, 19, 13, 13, 19, 19, 18, 13, 14, 13, 18, 19, 19, 18, 19, 19, 17, 18, 13, 13, 13, 13,  0,  0,  0,  0,  0,  0,  0,  0,  0,  0,  0,  0,  0,  0,  0,  0,  0,  0,  0,  0,  0,  0,  0,  0,  0,  0,  0,  0,  0,  0,  0,  0,  0,  0,  0,  0,  0,  0,  0,  0,
        | 18, 14, 18, 17, 19, 18, 19, 14, 13, 14, 17, 13, 14, 13, 18, 14, 18, 17, 14, 19, 13, 13, 19, 19, 18, 13, 14, 13, 18, 19, 19, 18, 19, 19, 17, 18, 13, 13, 13, 13,  0,  0,  0,  0,  0,  0,  0,  0,  0,  0,  0,  0,  0,  0,  0,  0,  0,  0,  0,  0,  0,  0,  0,  0,  0,  0,  0,  0,  0,  0,  0,  0,  0,  0,  0,  0,  0,  0,  0,  0,
        | 18, 14, 18, 17, 19, 18, 19, 14, 13, 14, 17, 13, 14, 13, 18, 14, 18, 17, 14, 19, 13, 13, 19, 19, 18, 13, 14, 13, 18, 19, 19, 18, 19, 19, 17, 18, 13, 13, 13, 13,  0,  0,  0,  0,  0,  0,  0,  0,  0,  0,  0,  0,  0,  0,  0,  0,  0,  0,  0,  0,  0,  0,  0,  0,  0,  0,  0,  0,  0,  0,  0,  0,  0,  0,  0,  0,  0,  0,  0,  0,
        | 18, 14, 18, 17, 19, 18, 19, 14, 13, 14, 17, 13, 14, 13, 18, 14, 18, 17, 14, 19, 13, 13, 19, 19, 18, 13, 14, 13, 18, 19, 19, 18, 19, 19, 17, 18, 13, 13, 13, 13,  0,  0,  0,  0,  0,  0,  0,  0,  0,  0,  0,  0,  0,  0,  0,  0,  0,  0,  0,  0,  0,  0,  0,  0,  0,  0,  0,  0,  0,  0,  0,  0,  0,  0,  0,  0,  0,  0,  0,  0,
        | 18, 14, 18, 17, 19, 18, 19, 14, 13, 14, 17, 13, 14, 13, 18, 14, 18, 17, 14, 19, 13, 13, 19, 19, 18, 13, 14, 13, 18, 19, 19, 18, 19, 19, 17, 18, 13, 13, 13, 13,  0,  0,  0,  0,  0,  0,  0,  0,  0,  0,  0,  0,  0,  0,  0,  0,  0,  0,  0,  0,  0,  0,  0,  0,  0,  0,  0,  0,  0,  0,  0,  0,  0,  0,  0,  0,  0,  0,  0,  0,
        | 18, 14, 18, 17, 19, 18, 19, 14, 13, 14, 17, 13, 14, 13, 18, 14, 18, 17, 14, 19, 13, 13, 19, 19, 18, 13, 14, 13, 18, 19, 19, 18, 19, 19, 17, 18, 13, 13, 13, 13,  0,  0,  0,  0,  0,  0,  0,  0,  0,  0,  0,  0,  0,  0,  0,  0,  0,  0,  0,  0,  0,  0,  0,  0,  0,  0,  0,  0,  0,  0,  0,  0,  0,  0,  0,  0,  0,  0,  0,  0,
        | 18, 14, 18, 17, 19, 18, 19, 14, 13, 14, 17, 13, 14, 13, 18, 14, 18, 17, 14, 19, 13, 13, 19, 19, 18, 13, 14, 13, 18, 19, 19, 18, 19, 19, 17, 18, 13, 13, 13, 13,  0,  0,  0,  0,  0,  0,  0,  0,  0,  0,  0,  0,  0,  0,  0,  0,  0,  0,  0,  0,  0,  0,  0,  0,  0,  0,  0,  0,  0,  0,  0,  0,  0,  0,  0,  0,  0,  0,  0,  0,
        | 18, 14, 18, 17, 19, 18, 19, 14, 13, 14, 17, 13, 14, 13, 18, 14, 18, 17, 14, 19, 13, 13, 19, 19, 18, 13, 14, 13, 18, 19, 19, 18, 19, 19, 17, 18, 13, 13, 13, 13,  0,  0,  0,  0,  0,  0,  0,  0,  0,  0,  0,  0,  0,  0,  0,  0,  0,  0,  0,  0,  0,  0,  0,  0,  0,  0,  0,  0,  0,  0,  0,  0,  0,  0,  0,  0,  0,  0,  0,  0,
        | 18, 14, 18, 17, 19, 18, 19, 14, 13, 14, 17, 13, 14, 13, 18, 14, 18, 17, 14, 19, 13, 13, 19, 19, 18, 13, 14, 13, 18, 19, 19, 18, 19, 19, 17, 18, 13, 13, 13, 13,  0,  0,  0,  0,  0,  0,  0,  0,  0,  0,  0,  0,  0,  0,  0,  0,  0,  0,  0,  0,  0,  0,  0,  0,  0,  0,  0,  0,  0,  0,  0,  0,  0,  0,  0,  0,  0,  0,  0,  0,
        | 18, 14, 18, 17, 19, 18, 19, 14, 13, 14, 17, 13, 14, 13, 18, 14, 18, 17, 14, 19, 13, 13, 19, 19, 18, 13, 14, 13, 18, 19, 19, 18, 19, 19, 17, 18, 13, 13, 13, 13,  0,  0,  0,  0,  0,  0,  0,  0,  0,  0,  0,  0,  0,  0,  0,  0,  0,  0,  0,  0,  0,  0,  0,  0,  0,  0,  0,  0,  0,  0,  0,  0,  0,  0,  0,  0,  0,  0,  0,  0|];
l =     [  2,  4,  2,  3,  5,  2,  5,  4,  1,  4,  3,  1,  4,  1,  2,  4,  2,  3,  4,  5,  1,  1,  5,  5,  2,  1,  4,  1,  2,  5,  5,  2,  5,  5,  3,  2,  1,  1,  1,  1];
a =     [ 18, 16, 18, 17, 19, 28, 47, 14, 14, 14, 17, 23, 35, 13, 18, 14, 18, 17, 29, 19, 54, 45, 54, 61, 55, 59, 75, 43, 45, 38, 65, 61, 58, 37, 65, 53, 56, 64, 50, 45];
b =     [ 48, 54, 46, 43, 48, 51, 78, 41, 38, 53, 35, 54, 71, 33, 48, 50, 52, 48, 61, 35, 94,111,111,101,110,102,117,109, 97, 85,113,110,103, 91,105,113,111,114,109,113];
s =     [ 16, 18, 10, 10, 10, 11, 15, 18, 11, 11, 14, 18, 10, 17, 17, 10, 18, 18, 10, 19, 16, 18, 10, 10, 10, 11, 15, 18, 11, 11, 14, 18, 10, 17, 17, 10, 18, 18, 10, 19];
q =     [  3,  4,  2,  2,  4,  3,  1,  3,  1,  2,  4,  3,  2,  2,  3,  3,  3,  2,  2,  4, -3, -4, -2, -2, -4, -3, -1, -3, -1, -2, -4, -3, -2, -2, -3, -3, -3, -2, -2, -4];
